(set-logic HORN)
(set-info :source |
  Benchmark: test_safe_2019/mochi/enc-zip_map2.ml
  Generated by MoCHi
|)
(set-info :status unknown)
(declare-fun |fail_29[143:0]| ( Int) Bool)
(declare-fun |map[135:1][138:0]| ( Int  Int) Bool)
(declare-fun |map[135:0]| ( Int) Bool)
(declare-fun |zip[109:2][131:0]| ( Int  Int  Int) Bool)
(declare-fun |zip[115:2][123:0]| ( Int  Int  Int) Bool)
(declare-fun |zip[115:1]| ( Int  Int) Bool)
(declare-fun |zip[109:1]| ( Int  Int) Bool)
(assert (not (exists ((x0 Int)) (|fail_29[143:0]| x0))))
(assert (forall ((x0 Int)(x3 Int)(x1 Int)(x2 Int)) (=> (and (|map[135:1][138:0]| x2 x3) (and (|zip[109:2][131:0]| x1 x1 x2) (not (= x3 x1)))) (|fail_29[143:0]| x0))))
(assert (forall ((x1 Int)(x0 Int)) (=> (and (|map[135:0]| x1) (and (= x1 0) (= x0 x1))) (|map[135:1][138:0]| x1 x0))))
(assert (forall ((x1 Int)(x0 Int)) (=> (|zip[109:2][131:0]| x0 x0 x1) (|map[135:0]| x1))))
(assert (forall ((x1 Int)(x2 Int)(x3 Int)(var179 Int)(var180 Int)(var181 Int)) (=> (and (|zip[115:2][123:0]| var179 var180 var181) (and (|zip[109:1]| x1 x2) (and (not (= x1 0)) (and (= (+ 1 var179) x1) (and (= (+ 1 var180) x2) (and (= x3 (+ 1 var181)) (not (= x2 0)))))))) (|zip[109:2][131:0]| x1 x2 x3))))
(assert (forall ((x1 Int)(x2 Int)(x3 Int)) (=> (and (|zip[115:1]| x1 x2) (and (= x2 0) (and (= x1 0) (= x3 x1)))) (|zip[115:2][123:0]| x1 x2 x3))))
(assert (forall ((x1 Int)(x0 Int)(x3 Int)(x2 Int)) (=> (and (|zip[109:1]| x2 x3) (and (= (+ 1 x0) x3) (and (= (+ 1 x1) x2) (and (not (= x2 0)) (not (= x3 0)))))) (|zip[115:1]| x1 x0))))
(assert (forall ((x1 Int)(x0 Int)) (=> (= x1 x0) (|zip[109:1]| x1 x0))))
(check-sat)
(get-model)
(exit)
